instances/A-n12-k3-m1-b3_v2_ampl_.txt
set K:= 1	2	3;
set C_H:= 1	2	3	4;
set C_S:= 5	6	7	8;
set C_F:= 9	10	11	12;
set M:= 13	14;
set L_B:= 15	16	17;
set A1:=
(0,*) 1 2 3 4 9 10 11 12 13 14 15 16 17
(1,*) 0 2 3 4 9 10 11 12 13 14 15 16 17
(2,*) 0 1 3 4 9 10 11 12 13 14 15 16 17
(3,*) 0 1 2 4 9 10 11 12 13 14 15 16 17
(4,*) 0 1 2 3 9 10 11 12 13 14 15 16 17
(9,*) 0 1 2 3 4 10 11 12 13 14 15 16 17
(10,*) 0 1 2 3 4 9 11 12 13 14 15 16 17
(11,*) 0 1 2 3 4 9 10 12 13 14 15 16 17
(12,*) 0 1 2 3 4 9 10 11 13 14 15 16 17
(13,*) 0 1 2 3 4 9 10 11 12 14 15 16 17
(14,*) 0 1 2 3 4 9 10 11 12 13 15 16 17
(15,*) 0 1 2 3 4 9 10 11 12 13 14 16 17
(16,*) 0 1 2 3 4 9 10 11 12 13 14 15 17
(17,*) 0 1 2 3 4 9 10 11 12 13 14 15 16
;
set A2:=
(13,*) 14
(14,*) 13
;
param BigM:=99999;
param n:= 3;
param d:=
1	16
2	9
3	21
4	8
5	6
6	7
7	15
8	14
9	4
10	24
11	2
12	6
;
param Q:=100;
param w:=
[13,*] 14 0.5
[14,*] 13 0.5
;
param V:=
[13,*] 14 74
[14,*] 13 74
;
param e:
	13	14	15	16	17:=
5	1	0	1	0	0	
6	1	1	1	0	0	
7	1	0	1	0	0	
8	1	1	0	0	1	
9	1	1	1	0	0	
10	0	1	0	0	1	
11	1	1	0	0	1	
12	0	1	0	1	0	
;
param p:=
1	3
2	3
3	3
;
param G:=
13	72
14	74
15	76
16	75
17	93
;
param s:=
0	0
1	10
2	10
3	10
4	10
9	10
10	10
11	10
12	10
13	10
14	10
15	10
16	10
17	10
;
param t:
	0	1	2	3	4	5	6	7	8	9	10	11	12	13	14	15	16	17:=
0	0.0	51.04	72.78	77.88	79.23	75.58	54.57	84.86	101.41	84.17	75.96	62.29	85.6	64.94	61.19	42.2	43.91	46.24
1	51.04	0.0	24.41	39.45	99.05	38.91	84.39	61.81	80.41	80.81	103.97	78.24	70.01	15.81	88.39	31.91	49.41	56.4
2	72.78	24.41	0.0	48.0	122.29	49.09	108.71	75.66	93.13	100.09	128.0	101.53	86.12	8.6	112.54	55.23	72.92	79.98
3	77.88	39.45	48.0	0.0	90.21	3.16	86.59	28.79	45.28	58.26	100.72	71.59	40.71	43.57	87.6	37.66	49.37	55.11
4	79.23	99.05	122.29	90.21	0.0	87.13	26.93	69.92	72.03	40.05	16.16	20.81	59.03	114.02	19.92	67.2	49.65	42.72
5	75.58	38.91	49.09	3.16	87.13	0.0	83.43	26.93	44.05	55.61	97.58	68.45	38.48	44.18	84.43	34.93	46.27	51.97
6	54.57	84.39	108.71	86.59	26.93	83.43	0.0	74.24	82.57	52.77	21.54	21.02	66.71	100.12	7.07	54.71	38.08	31.62
7	84.86	61.81	75.66	28.79	69.92	26.93	74.24	0.0	18.68	32.45	83.19	55.08	12.73	70.06	73.01	43.42	44.29	46.82
8	101.41	80.41	93.13	45.28	72.03	44.05	82.57	18.68	0.0	32.0	87.09	61.85	16.64	88.02	79.83	61.06	58.8	59.64
9	84.17	80.81	100.09	58.26	40.05	55.61	52.77	32.45	32.0	0.0	55.15	31.76	20.12	92.97	49.04	52.0	40.8	38.01
10	75.96	103.97	128.0	100.72	16.16	97.58	21.54	83.19	87.09	55.15	0.0	29.15	73.17	119.5	15.81	73.0	55.44	48.41
11	62.29	78.24	101.53	71.59	20.81	68.45	21.02	55.08	61.85	31.76	29.15	0.0	46.39	93.24	18.11	46.4	28.84	21.95
12	85.6	70.01	86.12	40.71	59.03	38.48	66.71	12.73	16.64	20.12	73.17	46.39	0.0	79.91	64.5	46.62	42.43	43.01
13	64.94	15.81	8.6	43.57	114.02	44.18	100.12	70.06	88.02	92.97	119.5	93.24	79.91	0.0	104.0	46.86	64.54	71.59
14	61.19	88.39	112.54	87.6	19.92	84.43	7.07	73.01	79.83	49.04	15.81	18.11	64.5	104.0	0.0	57.8	40.5	33.62
15	42.2	31.91	55.23	37.66	67.2	34.93	54.71	43.42	61.06	52.0	73.0	46.4	46.62	46.86	57.8	0.0	17.69	24.76
16	43.91	49.41	72.92	49.37	49.65	46.27	38.08	44.29	58.8	40.8	55.44	28.84	42.43	64.54	40.5	17.69	0.0	7.07
17	46.24	56.4	79.98	55.11	42.72	51.97	31.62	46.82	59.64	38.01	48.41	21.95	43.01	71.59	33.62	24.76	7.07	0.0
;
